benchmark/results/graph__15-1000-0.10-02_1/graph__15-1000-0.10-02_1_Quinton_Benders_sub.lp
\ This file has been generated by DOcplex
\ ENCODING=ISO-8859-1
\Problem name: Quinton Benders_dual_sub

Minimize
 obj: 0.001048218029 pi_nr_a0 + 0.000978473581 pi_nr_a1
      + 0.002444987775 pi_nr_a2 + 0.001626016260 pi_nr_a3
      + 0.001410437236 pi_nr_a4 + 0.001798561151 pi_nr_a5
      + 0.001964636542 pi_nr_a6 + 0.001172332943 pi_nr_a7
      + 0.001333333333 pi_nr_a8 + 0.001555209953 pi_nr_a9
      + 0.000931966449 pi_nr_a10 + 0.001248439451 pi_nr_a11
      + 0.001517450683 pi_nr_a12 + 0.000884955752 pi_nr_a13
      + 0.001016260163 pi_nr_a14 + pi_p_a1_a0 + pi_p_a7_a5 + pi_p_a12_a13
      + pi_p_a11_a5 + pi_p_a9_a13 + pi_p_a7_a2 + pi_p_a4_a12
      + 2502 pi_d_a0_a1_proc_0 + 2503 pi_d_a1_a0_proc_0 + pi_d_a1_a0_proc_1
      + 2502 pi_d_a0_a2_proc_0 + 2502 pi_d_a0_a2_proc_1 + pi_d_a2_a0_proc_0
      + pi_d_a2_a0_proc_1 + pi_d_a3_a0_proc_1 + 2502 pi_d_a0_a4_proc_0
      + pi_d_a4_a0_proc_0 + 2502 pi_d_a0_a5_proc_0 + 2503 pi_d_a5_a0_proc_0
      + pi_d_a5_a0_proc_1 + 2502 pi_d_a0_a6_proc_0 + 2502 pi_d_a0_a6_proc_1
      + pi_d_a6_a0_proc_0 + pi_d_a6_a0_proc_1 - pi_d_a0_a7_proc_1
      + 2 pi_d_a7_a0_proc_1 + 2502 pi_d_a0_a8_proc_0 + 2503 pi_d_a8_a0_proc_0
      + pi_d_a8_a0_proc_1 + 2503 pi_d_a9_a0_proc_0 + 2503 pi_d_a9_a0_proc_1
      + 445 pi_d_a0_a10_proc_0 + 445 pi_d_a0_a10_proc_1
      + 2058 pi_d_a10_a0_proc_0 + 2058 pi_d_a10_a0_proc_1
      + 2502 pi_d_a0_a11_proc_0 + pi_d_a11_a0_proc_0 + 2502 pi_d_a0_a12_proc_0
      + 2502 pi_d_a0_a12_proc_1 + pi_d_a12_a0_proc_0 + pi_d_a12_a0_proc_1
      + 2502 pi_d_a0_a13_proc_0 + 2502 pi_d_a0_a13_proc_1 + pi_d_a13_a0_proc_0
      + pi_d_a13_a0_proc_1 + 2502 pi_d_a0_a14_proc_0 + 2503 pi_d_a14_a0_proc_0
      + pi_d_a14_a0_proc_1 + 2502 pi_d_a1_a2_proc_0 + 2502 pi_d_a1_a2_proc_1
      + pi_d_a2_a1_proc_0 + pi_d_a2_a1_proc_1 + pi_d_a1_a3_proc_1
      + 2503 pi_d_a1_a4_proc_0 + 2503 pi_d_a1_a5_proc_0 + pi_d_a1_a5_proc_1
      + 2502 pi_d_a5_a1_proc_0 + 2503 pi_d_a1_a6_proc_0 + 2503 pi_d_a1_a6_proc_1
      + pi_d_a7_a1_proc_1 + 2503 pi_d_a1_a8_proc_0 + pi_d_a1_a8_proc_1
      + 2502 pi_d_a8_a1_proc_0 + 2503 pi_d_a9_a1_proc_0 + 2503 pi_d_a9_a1_proc_1
      + 2502 pi_d_a1_a10_proc_0 + 2502 pi_d_a1_a10_proc_1 + pi_d_a10_a1_proc_0
      + pi_d_a10_a1_proc_1 + 2503 pi_d_a11_a1_proc_0 + 2503 pi_d_a1_a12_proc_0
      + 2503 pi_d_a1_a12_proc_1 + 2503 pi_d_a1_a13_proc_0
      + 2503 pi_d_a1_a13_proc_1 + 2503 pi_d_a1_a14_proc_0 + pi_d_a1_a14_proc_1
      + 2502 pi_d_a14_a1_proc_0 + 2503 pi_d_a2_a3_proc_1 + pi_d_a2_a4_proc_0
      + 2503 pi_d_a2_a5_proc_0 + 2503 pi_d_a2_a5_proc_1 + pi_d_a2_a6_proc_0
      + 2503 pi_d_a2_a6_proc_1 + 2502 pi_d_a6_a2_proc_1 + 2503 pi_d_a7_a2_proc_1
      + 2502 pi_d_a2_a8_proc_0 + 2502 pi_d_a2_a8_proc_1 + pi_d_a8_a2_proc_0
      + pi_d_a8_a2_proc_1 + 2502 pi_d_a2_a9_proc_1 + pi_d_a9_a2_proc_0
      + 2503 pi_d_a9_a2_proc_1 + 2502 pi_d_a2_a10_proc_1 + pi_d_a10_a2_proc_0
      + 2503 pi_d_a10_a2_proc_1 + pi_d_a11_a2_proc_0 + pi_d_a2_a12_proc_0
      + 2503 pi_d_a2_a12_proc_1 + 2502 pi_d_a12_a2_proc_1 + pi_d_a2_a13_proc_0
      + 2503 pi_d_a2_a13_proc_1 + 2502 pi_d_a13_a2_proc_1
      + 2503 pi_d_a2_a14_proc_0 + 2503 pi_d_a2_a14_proc_1 + pi_d_a5_a3_proc_1
      + 2502 pi_d_a3_a6_proc_1 + pi_d_a6_a3_proc_1 - pi_d_a3_a7_proc_1
      + 2 pi_d_a7_a3_proc_1 + pi_d_a8_a3_proc_1 + 2502 pi_d_a3_a9_proc_1
      + pi_d_a9_a3_proc_1 + 2502 pi_d_a3_a10_proc_1 + pi_d_a10_a3_proc_1
      + 2502 pi_d_a3_a12_proc_1 + pi_d_a12_a3_proc_1 + 2502 pi_d_a3_a13_proc_1
      + pi_d_a13_a3_proc_1 + pi_d_a14_a3_proc_1 + 2502 pi_d_a4_a5_proc_0
      + pi_d_a5_a4_proc_0 + pi_d_a4_a6_proc_0 + 2502 pi_d_a4_a8_proc_0
      + pi_d_a8_a4_proc_0 + pi_d_a9_a4_proc_0 + pi_d_a10_a4_proc_0
      + pi_d_a11_a4_proc_0 + pi_d_a4_a12_proc_0 + pi_d_a4_a13_proc_0
      + 2503 pi_d_a4_a14_proc_0 + 2503 pi_d_a5_a6_proc_0
      + 2503 pi_d_a5_a6_proc_1 + pi_d_a7_a5_proc_1 + 2502 pi_d_a5_a8_proc_0
      + 2503 pi_d_a8_a5_proc_0 + pi_d_a8_a5_proc_1 + 2502 pi_d_a5_a9_proc_0
      + 2502 pi_d_a5_a9_proc_1 + pi_d_a9_a5_proc_0 + pi_d_a9_a5_proc_1
      + 2502 pi_d_a5_a10_proc_0 + 2502 pi_d_a5_a10_proc_1 + pi_d_a10_a5_proc_0
      + pi_d_a10_a5_proc_1 + 2502 pi_d_a5_a11_proc_0 + pi_d_a11_a5_proc_0
      + pi_d_a5_a12_proc_0 + pi_d_a5_a12_proc_1 + 2502 pi_d_a12_a5_proc_0
      + 2502 pi_d_a12_a5_proc_1 + 2503 pi_d_a5_a13_proc_0
      + 2503 pi_d_a5_a13_proc_1 + 2503 pi_d_a5_a14_proc_0 + pi_d_a5_a14_proc_1
      + 2502 pi_d_a14_a5_proc_0 - pi_d_a6_a7_proc_1 + 2504 pi_d_a7_a6_proc_1
      + 2502 pi_d_a6_a8_proc_0 + 2502 pi_d_a6_a8_proc_1 + pi_d_a8_a6_proc_0
      + pi_d_a8_a6_proc_1 + 2502 pi_d_a6_a9_proc_1 + pi_d_a9_a6_proc_0
      + 2503 pi_d_a9_a6_proc_1 + 2502 pi_d_a6_a10_proc_1 + pi_d_a10_a6_proc_0
      + 2503 pi_d_a10_a6_proc_1 + pi_d_a11_a6_proc_0 + 2502 pi_d_a6_a12_proc_1
      + pi_d_a12_a6_proc_0 + 2503 pi_d_a12_a6_proc_1 + 2502 pi_d_a6_a13_proc_1
      + pi_d_a13_a6_proc_0 + 2503 pi_d_a13_a6_proc_1 + 2502 pi_d_a6_a14_proc_0
      + 2502 pi_d_a6_a14_proc_1 + pi_d_a14_a6_proc_0 + pi_d_a14_a6_proc_1
      + pi_d_a7_a8_proc_1 + 2503 pi_d_a7_a9_proc_1 + 2503 pi_d_a7_a10_proc_1
      + 2503 pi_d_a7_a12_proc_1 + 2 pi_d_a7_a13_proc_1 + 2501 pi_d_a13_a7_proc_1
      + 2 pi_d_a7_a14_proc_1 - pi_d_a14_a7_proc_1 + 2502 pi_d_a8_a9_proc_0
      + 2502 pi_d_a8_a9_proc_1 + pi_d_a9_a8_proc_0 + pi_d_a9_a8_proc_1
      + 2502 pi_d_a8_a10_proc_0 + 2502 pi_d_a8_a10_proc_1 + pi_d_a10_a8_proc_0
      + pi_d_a10_a8_proc_1 + 2502 pi_d_a8_a11_proc_0 + pi_d_a11_a8_proc_0
      + 2503 pi_d_a8_a12_proc_0 + 2503 pi_d_a8_a12_proc_1
      + 2503 pi_d_a8_a13_proc_0 + 2503 pi_d_a8_a13_proc_1
      + 2503 pi_d_a8_a14_proc_0 + pi_d_a8_a14_proc_1 + 2502 pi_d_a14_a8_proc_0
      + pi_d_a9_a10_proc_0 + 2503 pi_d_a9_a10_proc_1 + 2502 pi_d_a10_a9_proc_1
      + pi_d_a9_a11_proc_0 + pi_d_a9_a12_proc_0 + 2503 pi_d_a9_a12_proc_1
      + 2502 pi_d_a12_a9_proc_1 + pi_d_a9_a13_proc_0 + 2503 pi_d_a9_a13_proc_1
      + 2502 pi_d_a13_a9_proc_1 + pi_d_a9_a14_proc_0 + pi_d_a9_a14_proc_1
      + 2502 pi_d_a14_a9_proc_0 + 2502 pi_d_a14_a9_proc_1 + pi_d_a10_a11_proc_0
      + pi_d_a10_a12_proc_0 + 2503 pi_d_a10_a12_proc_1
      + 2502 pi_d_a12_a10_proc_1 + pi_d_a10_a13_proc_0
      + 2503 pi_d_a10_a13_proc_1 + 2502 pi_d_a13_a10_proc_1
      + pi_d_a10_a14_proc_0 + pi_d_a10_a14_proc_1 + 2502 pi_d_a14_a10_proc_0
      + 2502 pi_d_a14_a10_proc_1 + pi_d_a11_a12_proc_0 + pi_d_a11_a13_proc_0
      + pi_d_a11_a14_proc_0 + 2502 pi_d_a14_a11_proc_0 + pi_d_a12_a13_proc_0
      + 2503 pi_d_a12_a13_proc_1 + 2502 pi_d_a13_a12_proc_1
      + 476 pi_d_a12_a14_proc_0 + 476 pi_d_a12_a14_proc_1
      + 2027 pi_d_a14_a12_proc_0 + 2027 pi_d_a14_a12_proc_1
      + 208 pi_d_a13_a14_proc_0 + 208 pi_d_a13_a14_proc_1
      + 2295 pi_d_a14_a13_proc_0 + 2295 pi_d_a14_a13_proc_1 + pi_y2_a0_proc_1
      + pi_y2_a1_proc_1 + pi_y2_a2_proc_0 + pi_y2_a3_proc_1 + pi_y2_a4_proc_0
      + pi_y2_a5_proc_1 + pi_y2_a6_proc_0 + pi_y2_a7_proc_1 + pi_y2_a8_proc_1
      + pi_y2_a9_proc_0 + pi_y2_a10_proc_0 + pi_y2_a11_proc_0 + pi_y2_a12_proc_0
      + pi_y2_a13_proc_0 + pi_y2_a14_proc_1
Subject To
 c1: pi_nr_a0 + pi_nr_a1 + pi_nr_a2 + pi_nr_a3 + pi_nr_a4 + pi_nr_a5 + pi_nr_a6
     + pi_nr_a7 + pi_nr_a8 + pi_nr_a9 + pi_nr_a10 + pi_nr_a11 + pi_nr_a12
     + pi_nr_a13 + pi_nr_a14 - pi_y1_a0 - pi_y1_a1 - pi_y1_a2 - pi_y1_a3
     - pi_y1_a4 - pi_y1_a5 - pi_y1_a6 - pi_y1_a7 - pi_y1_a8 - pi_y1_a9
     - pi_y1_a10 - pi_y1_a11 - pi_y1_a12 - pi_y1_a13 - pi_y1_a14 >= 1
 c2: - pi_p_a1_a0 + pi_p_a0_a3 + pi_d_a0_a1_proc_0 + pi_d_a0_a1_proc_1
     - pi_d_a1_a0_proc_0 - pi_d_a1_a0_proc_1 + pi_d_a0_a2_proc_0
     + pi_d_a0_a2_proc_1 - pi_d_a2_a0_proc_0 - pi_d_a2_a0_proc_1
     + pi_d_a0_a3_proc_1 - pi_d_a3_a0_proc_1 + pi_d_a0_a4_proc_0
     - pi_d_a4_a0_proc_0 + pi_d_a0_a5_proc_0 + pi_d_a0_a5_proc_1
     - pi_d_a5_a0_proc_0 - pi_d_a5_a0_proc_1 + pi_d_a0_a6_proc_0
     + pi_d_a0_a6_proc_1 - pi_d_a6_a0_proc_0 - pi_d_a6_a0_proc_1
     + pi_d_a0_a7_proc_1 - pi_d_a7_a0_proc_1 + pi_d_a0_a8_proc_0
     + pi_d_a0_a8_proc_1 - pi_d_a8_a0_proc_0 - pi_d_a8_a0_proc_1
     + pi_d_a0_a9_proc_0 + pi_d_a0_a9_proc_1 - pi_d_a9_a0_proc_0
     - pi_d_a9_a0_proc_1 + pi_d_a0_a10_proc_0 + pi_d_a0_a10_proc_1
     - pi_d_a10_a0_proc_0 - pi_d_a10_a0_proc_1 + pi_d_a0_a11_proc_0
     - pi_d_a11_a0_proc_0 + pi_d_a0_a12_proc_0 + pi_d_a0_a12_proc_1
     - pi_d_a12_a0_proc_0 - pi_d_a12_a0_proc_1 + pi_d_a0_a13_proc_0
     + pi_d_a0_a13_proc_1 - pi_d_a13_a0_proc_0 - pi_d_a13_a0_proc_1
     + pi_d_a0_a14_proc_0 + pi_d_a0_a14_proc_1 - pi_d_a14_a0_proc_0
     - pi_d_a14_a0_proc_1 >= 0
 c3: 1188 pi_p_a0_a3 + 1188 pi_d_a0_a1_proc_0 + 1188 pi_d_a0_a2_proc_0
     + 1188 pi_d_a0_a4_proc_0 + 1188 pi_d_a0_a5_proc_0 + 1188 pi_d_a0_a6_proc_0
     + 1188 pi_d_a0_a8_proc_0 + 1188 pi_d_a0_a9_proc_0 + 1188 pi_d_a0_a10_proc_0
     + 1188 pi_d_a0_a11_proc_0 + 1188 pi_d_a0_a12_proc_0
     + 1188 pi_d_a0_a13_proc_0 + 1188 pi_d_a0_a14_proc_0 + pi_y1_a0
     + pi_y2_a0_proc_0 >= 0
 c4: 954 pi_p_a0_a3 + 954 pi_d_a0_a1_proc_1 + 954 pi_d_a0_a2_proc_1
     + 954 pi_d_a0_a3_proc_1 + 954 pi_d_a0_a5_proc_1 + 954 pi_d_a0_a6_proc_1
     + 954 pi_d_a0_a7_proc_1 + 954 pi_d_a0_a8_proc_1 + 954 pi_d_a0_a9_proc_1
     + 954 pi_d_a0_a10_proc_1 + 954 pi_d_a0_a12_proc_1 + 954 pi_d_a0_a13_proc_1
     + 954 pi_d_a0_a14_proc_1 + pi_y1_a0 + pi_y2_a0_proc_1 >= 0
 c5: pi_p_a1_a0 - pi_p_a2_a1 - pi_d_a0_a1_proc_0 - pi_d_a0_a1_proc_1
     + pi_d_a1_a0_proc_0 + pi_d_a1_a0_proc_1 + pi_d_a1_a2_proc_0
     + pi_d_a1_a2_proc_1 - pi_d_a2_a1_proc_0 - pi_d_a2_a1_proc_1
     + pi_d_a1_a3_proc_1 - pi_d_a3_a1_proc_1 + pi_d_a1_a4_proc_0
     - pi_d_a4_a1_proc_0 + pi_d_a1_a5_proc_0 + pi_d_a1_a5_proc_1
     - pi_d_a5_a1_proc_0 - pi_d_a5_a1_proc_1 + pi_d_a1_a6_proc_0
     + pi_d_a1_a6_proc_1 - pi_d_a6_a1_proc_0 - pi_d_a6_a1_proc_1
     + pi_d_a1_a7_proc_1 - pi_d_a7_a1_proc_1 + pi_d_a1_a8_proc_0
     + pi_d_a1_a8_proc_1 - pi_d_a8_a1_proc_0 - pi_d_a8_a1_proc_1
     + pi_d_a1_a9_proc_0 + pi_d_a1_a9_proc_1 - pi_d_a9_a1_proc_0
     - pi_d_a9_a1_proc_1 + pi_d_a1_a10_proc_0 + pi_d_a1_a10_proc_1
     - pi_d_a10_a1_proc_0 - pi_d_a10_a1_proc_1 + pi_d_a1_a11_proc_0
     - pi_d_a11_a1_proc_0 + pi_d_a1_a12_proc_0 + pi_d_a1_a12_proc_1
     - pi_d_a12_a1_proc_0 - pi_d_a12_a1_proc_1 + pi_d_a1_a13_proc_0
     + pi_d_a1_a13_proc_1 - pi_d_a13_a1_proc_0 - pi_d_a13_a1_proc_1
     + pi_d_a1_a14_proc_0 + pi_d_a1_a14_proc_1 - pi_d_a14_a1_proc_0
     - pi_d_a14_a1_proc_1 >= 0
 c6: 1251 pi_p_a1_a0 + 1251 pi_d_a1_a0_proc_0 + 1251 pi_d_a1_a2_proc_0
     + 1251 pi_d_a1_a4_proc_0 + 1251 pi_d_a1_a5_proc_0 + 1251 pi_d_a1_a6_proc_0
     + 1251 pi_d_a1_a8_proc_0 + 1251 pi_d_a1_a9_proc_0 + 1251 pi_d_a1_a10_proc_0
     + 1251 pi_d_a1_a11_proc_0 + 1251 pi_d_a1_a12_proc_0
     + 1251 pi_d_a1_a13_proc_0 + 1251 pi_d_a1_a14_proc_0 + pi_y1_a1
     + pi_y2_a1_proc_0 >= 0
 c7: 1022 pi_p_a1_a0 + 1022 pi_d_a1_a0_proc_1 + 1022 pi_d_a1_a2_proc_1
     + 1022 pi_d_a1_a3_proc_1 + 1022 pi_d_a1_a5_proc_1 + 1022 pi_d_a1_a6_proc_1
     + 1022 pi_d_a1_a7_proc_1 + 1022 pi_d_a1_a8_proc_1 + 1022 pi_d_a1_a9_proc_1
     + 1022 pi_d_a1_a10_proc_1 + 1022 pi_d_a1_a12_proc_1
     + 1022 pi_d_a1_a13_proc_1 + 1022 pi_d_a1_a14_proc_1 + pi_y1_a1
     + pi_y2_a1_proc_1 >= 0
 c8: pi_p_a2_a1 - pi_p_a8_a2 - pi_p_a7_a2 - pi_p_a14_a2 - pi_d_a0_a2_proc_0
     - pi_d_a0_a2_proc_1 + pi_d_a2_a0_proc_0 + pi_d_a2_a0_proc_1
     - pi_d_a1_a2_proc_0 - pi_d_a1_a2_proc_1 + pi_d_a2_a1_proc_0
     + pi_d_a2_a1_proc_1 + pi_d_a2_a3_proc_1 - pi_d_a3_a2_proc_1
     + pi_d_a2_a4_proc_0 - pi_d_a4_a2_proc_0 + pi_d_a2_a5_proc_0
     + pi_d_a2_a5_proc_1 - pi_d_a5_a2_proc_0 - pi_d_a5_a2_proc_1
     + pi_d_a2_a6_proc_0 + pi_d_a2_a6_proc_1 - pi_d_a6_a2_proc_0
     - pi_d_a6_a2_proc_1 + pi_d_a2_a7_proc_1 - pi_d_a7_a2_proc_1
     + pi_d_a2_a8_proc_0 + pi_d_a2_a8_proc_1 - pi_d_a8_a2_proc_0
     - pi_d_a8_a2_proc_1 + pi_d_a2_a9_proc_0 + pi_d_a2_a9_proc_1
     - pi_d_a9_a2_proc_0 - pi_d_a9_a2_proc_1 + pi_d_a2_a10_proc_0
     + pi_d_a2_a10_proc_1 - pi_d_a10_a2_proc_0 - pi_d_a10_a2_proc_1
     + pi_d_a2_a11_proc_0 - pi_d_a11_a2_proc_0 + pi_d_a2_a12_proc_0
     + pi_d_a2_a12_proc_1 - pi_d_a12_a2_proc_0 - pi_d_a12_a2_proc_1
     + pi_d_a2_a13_proc_0 + pi_d_a2_a13_proc_1 - pi_d_a13_a2_proc_0
     - pi_d_a13_a2_proc_1 + pi_d_a2_a14_proc_0 + pi_d_a2_a14_proc_1
     - pi_d_a14_a2_proc_0 - pi_d_a14_a2_proc_1 >= 0
 c9: 409 pi_p_a2_a1 + 409 pi_d_a2_a0_proc_0 + 409 pi_d_a2_a1_proc_0
     + 409 pi_d_a2_a4_proc_0 + 409 pi_d_a2_a5_proc_0 + 409 pi_d_a2_a6_proc_0
     + 409 pi_d_a2_a8_proc_0 + 409 pi_d_a2_a9_proc_0 + 409 pi_d_a2_a10_proc_0
     + 409 pi_d_a2_a11_proc_0 + 409 pi_d_a2_a12_proc_0 + 409 pi_d_a2_a13_proc_0
     + 409 pi_d_a2_a14_proc_0 + pi_y1_a2 + pi_y2_a2_proc_0 >= 0
 c10: 1040 pi_p_a2_a1 + 1040 pi_d_a2_a0_proc_1 + 1040 pi_d_a2_a1_proc_1
      + 1040 pi_d_a2_a3_proc_1 + 1040 pi_d_a2_a5_proc_1 + 1040 pi_d_a2_a6_proc_1
      + 1040 pi_d_a2_a7_proc_1 + 1040 pi_d_a2_a8_proc_1 + 1040 pi_d_a2_a9_proc_1
      + 1040 pi_d_a2_a10_proc_1 + 1040 pi_d_a2_a12_proc_1
      + 1040 pi_d_a2_a13_proc_1 + 1040 pi_d_a2_a14_proc_1 + pi_y1_a2
      + pi_y2_a2_proc_1 >= 0
 c11: - pi_p_a0_a3 + pi_p_a3_a4 + pi_p_a3_a6 + pi_p_a3_a8 - pi_d_a0_a3_proc_1
      + pi_d_a3_a0_proc_1 - pi_d_a1_a3_proc_1 + pi_d_a3_a1_proc_1
      - pi_d_a2_a3_proc_1 + pi_d_a3_a2_proc_1 + pi_d_a3_a5_proc_1
      - pi_d_a5_a3_proc_1 + pi_d_a3_a6_proc_1 - pi_d_a6_a3_proc_1
      + pi_d_a3_a7_proc_1 - pi_d_a7_a3_proc_1 + pi_d_a3_a8_proc_1
      - pi_d_a8_a3_proc_1 + pi_d_a3_a9_proc_1 - pi_d_a9_a3_proc_1
      + pi_d_a3_a10_proc_1 - pi_d_a10_a3_proc_1 + pi_d_a3_a12_proc_1
      - pi_d_a12_a3_proc_1 + pi_d_a3_a13_proc_1 - pi_d_a13_a3_proc_1
      + pi_d_a3_a14_proc_1 - pi_d_a14_a3_proc_1 >= 0
 c12: 615 pi_p_a3_a4 + 615 pi_p_a3_a6 + 615 pi_p_a3_a8 + 615 pi_d_a3_a0_proc_1
      + 615 pi_d_a3_a1_proc_1 + 615 pi_d_a3_a2_proc_1 + 615 pi_d_a3_a5_proc_1
      + 615 pi_d_a3_a6_proc_1 + 615 pi_d_a3_a7_proc_1 + 615 pi_d_a3_a8_proc_1
      + 615 pi_d_a3_a9_proc_1 + 615 pi_d_a3_a10_proc_1 + 615 pi_d_a3_a12_proc_1
      + 615 pi_d_a3_a13_proc_1 + 615 pi_d_a3_a14_proc_1 + pi_y1_a3
      + pi_y2_a3_proc_1 >= 0
 c13: - pi_p_a3_a4 - pi_p_a5_a4 - pi_p_a14_a4 + pi_p_a4_a8 + pi_p_a4_a11
      + pi_p_a4_a12 - pi_d_a0_a4_proc_0 + pi_d_a4_a0_proc_0 - pi_d_a1_a4_proc_0
      + pi_d_a4_a1_proc_0 - pi_d_a2_a4_proc_0 + pi_d_a4_a2_proc_0
      + pi_d_a4_a5_proc_0 - pi_d_a5_a4_proc_0 + pi_d_a4_a6_proc_0
      - pi_d_a6_a4_proc_0 + pi_d_a4_a8_proc_0 - pi_d_a8_a4_proc_0
      + pi_d_a4_a9_proc_0 - pi_d_a9_a4_proc_0 + pi_d_a4_a10_proc_0
      - pi_d_a10_a4_proc_0 + pi_d_a4_a11_proc_0 - pi_d_a11_a4_proc_0
      + pi_d_a4_a12_proc_0 - pi_d_a12_a4_proc_0 + pi_d_a4_a13_proc_0
      - pi_d_a13_a4_proc_0 + pi_d_a4_a14_proc_0 - pi_d_a14_a4_proc_0 >= 0
 c14: 709 pi_p_a4_a8 + 709 pi_p_a4_a11 + 709 pi_p_a4_a12 + 709 pi_d_a4_a0_proc_0
      + 709 pi_d_a4_a1_proc_0 + 709 pi_d_a4_a2_proc_0 + 709 pi_d_a4_a5_proc_0
      + 709 pi_d_a4_a6_proc_0 + 709 pi_d_a4_a8_proc_0 + 709 pi_d_a4_a9_proc_0
      + 709 pi_d_a4_a10_proc_0 + 709 pi_d_a4_a11_proc_0 + 709 pi_d_a4_a12_proc_0
      + 709 pi_d_a4_a13_proc_0 + 709 pi_d_a4_a14_proc_0 + pi_y1_a4
      + pi_y2_a4_proc_0 >= 0
 c15: pi_p_a5_a4 - pi_p_a7_a5 - pi_p_a11_a5 - pi_p_a13_a5 - pi_d_a0_a5_proc_0
      - pi_d_a0_a5_proc_1 + pi_d_a5_a0_proc_0 + pi_d_a5_a0_proc_1
      - pi_d_a1_a5_proc_0 - pi_d_a1_a5_proc_1 + pi_d_a5_a1_proc_0
      + pi_d_a5_a1_proc_1 - pi_d_a2_a5_proc_0 - pi_d_a2_a5_proc_1
      + pi_d_a5_a2_proc_0 + pi_d_a5_a2_proc_1 - pi_d_a3_a5_proc_1
      + pi_d_a5_a3_proc_1 - pi_d_a4_a5_proc_0 + pi_d_a5_a4_proc_0
      + pi_d_a5_a6_proc_0 + pi_d_a5_a6_proc_1 - pi_d_a6_a5_proc_0
      - pi_d_a6_a5_proc_1 + pi_d_a5_a7_proc_1 - pi_d_a7_a5_proc_1
      + pi_d_a5_a8_proc_0 + pi_d_a5_a8_proc_1 - pi_d_a8_a5_proc_0
      - pi_d_a8_a5_proc_1 + pi_d_a5_a9_proc_0 + pi_d_a5_a9_proc_1
      - pi_d_a9_a5_proc_0 - pi_d_a9_a5_proc_1 + pi_d_a5_a10_proc_0
      + pi_d_a5_a10_proc_1 - pi_d_a10_a5_proc_0 - pi_d_a10_a5_proc_1
      + pi_d_a5_a11_proc_0 - pi_d_a11_a5_proc_0 + pi_d_a5_a12_proc_0
      + pi_d_a5_a12_proc_1 - pi_d_a12_a5_proc_0 - pi_d_a12_a5_proc_1
      + pi_d_a5_a13_proc_0 + pi_d_a5_a13_proc_1 - pi_d_a13_a5_proc_0
      - pi_d_a13_a5_proc_1 + pi_d_a5_a14_proc_0 + pi_d_a5_a14_proc_1
      - pi_d_a14_a5_proc_0 - pi_d_a14_a5_proc_1 >= 0
 c16: 801 pi_p_a5_a4 + 801 pi_d_a5_a0_proc_0 + 801 pi_d_a5_a1_proc_0
      + 801 pi_d_a5_a2_proc_0 + 801 pi_d_a5_a4_proc_0 + 801 pi_d_a5_a6_proc_0
      + 801 pi_d_a5_a8_proc_0 + 801 pi_d_a5_a9_proc_0 + 801 pi_d_a5_a10_proc_0
      + 801 pi_d_a5_a11_proc_0 + 801 pi_d_a5_a12_proc_0 + 801 pi_d_a5_a13_proc_0
      + 801 pi_d_a5_a14_proc_0 + pi_y1_a5 + pi_y2_a5_proc_0 >= 0
 c17: 556 pi_p_a5_a4 + 556 pi_d_a5_a0_proc_1 + 556 pi_d_a5_a1_proc_1
      + 556 pi_d_a5_a2_proc_1 + 556 pi_d_a5_a3_proc_1 + 556 pi_d_a5_a6_proc_1
      + 556 pi_d_a5_a7_proc_1 + 556 pi_d_a5_a8_proc_1 + 556 pi_d_a5_a9_proc_1
      + 556 pi_d_a5_a10_proc_1 + 556 pi_d_a5_a12_proc_1 + 556 pi_d_a5_a13_proc_1
      + 556 pi_d_a5_a14_proc_1 + pi_y1_a5 + pi_y2_a5_proc_1 >= 0
 c18: - pi_p_a3_a6 + pi_p_a6_a12 + pi_p_a6_a14 + pi_p_a6_a13 - pi_d_a0_a6_proc_0
      - pi_d_a0_a6_proc_1 + pi_d_a6_a0_proc_0 + pi_d_a6_a0_proc_1
      - pi_d_a1_a6_proc_0 - pi_d_a1_a6_proc_1 + pi_d_a6_a1_proc_0
      + pi_d_a6_a1_proc_1 - pi_d_a2_a6_proc_0 - pi_d_a2_a6_proc_1
      + pi_d_a6_a2_proc_0 + pi_d_a6_a2_proc_1 - pi_d_a3_a6_proc_1
      + pi_d_a6_a3_proc_1 - pi_d_a4_a6_proc_0 + pi_d_a6_a4_proc_0
      - pi_d_a5_a6_proc_0 - pi_d_a5_a6_proc_1 + pi_d_a6_a5_proc_0
      + pi_d_a6_a5_proc_1 + pi_d_a6_a7_proc_1 - pi_d_a7_a6_proc_1
      + pi_d_a6_a8_proc_0 + pi_d_a6_a8_proc_1 - pi_d_a8_a6_proc_0
      - pi_d_a8_a6_proc_1 + pi_d_a6_a9_proc_0 + pi_d_a6_a9_proc_1
      - pi_d_a9_a6_proc_0 - pi_d_a9_a6_proc_1 + pi_d_a6_a10_proc_0
      + pi_d_a6_a10_proc_1 - pi_d_a10_a6_proc_0 - pi_d_a10_a6_proc_1
      + pi_d_a6_a11_proc_0 - pi_d_a11_a6_proc_0 + pi_d_a6_a12_proc_0
      + pi_d_a6_a12_proc_1 - pi_d_a12_a6_proc_0 - pi_d_a12_a6_proc_1
      + pi_d_a6_a13_proc_0 + pi_d_a6_a13_proc_1 - pi_d_a13_a6_proc_0
      - pi_d_a13_a6_proc_1 + pi_d_a6_a14_proc_0 + pi_d_a6_a14_proc_1
      - pi_d_a14_a6_proc_0 - pi_d_a14_a6_proc_1 >= 0
 c19: 509 pi_p_a6_a12 + 509 pi_p_a6_a14 + 509 pi_p_a6_a13
      + 509 pi_d_a6_a0_proc_0 + 509 pi_d_a6_a1_proc_0 + 509 pi_d_a6_a2_proc_0
      + 509 pi_d_a6_a4_proc_0 + 509 pi_d_a6_a5_proc_0 + 509 pi_d_a6_a8_proc_0
      + 509 pi_d_a6_a9_proc_0 + 509 pi_d_a6_a10_proc_0 + 509 pi_d_a6_a11_proc_0
      + 509 pi_d_a6_a12_proc_0 + 509 pi_d_a6_a13_proc_0 + 509 pi_d_a6_a14_proc_0
      + pi_y1_a6 + pi_y2_a6_proc_0 >= 0
 c20: 858 pi_p_a6_a12 + 858 pi_p_a6_a14 + 858 pi_p_a6_a13
      + 858 pi_d_a6_a0_proc_1 + 858 pi_d_a6_a1_proc_1 + 858 pi_d_a6_a2_proc_1
      + 858 pi_d_a6_a3_proc_1 + 858 pi_d_a6_a5_proc_1 + 858 pi_d_a6_a7_proc_1
      + 858 pi_d_a6_a8_proc_1 + 858 pi_d_a6_a9_proc_1 + 858 pi_d_a6_a10_proc_1
      + 858 pi_d_a6_a12_proc_1 + 858 pi_d_a6_a13_proc_1 + 858 pi_d_a6_a14_proc_1
      + pi_y1_a6 + pi_y2_a6_proc_1 >= 0
 c21: pi_p_a7_a5 - pi_p_a10_a7 + pi_p_a7_a2 - pi_d_a0_a7_proc_1
      + pi_d_a7_a0_proc_1 - pi_d_a1_a7_proc_1 + pi_d_a7_a1_proc_1
      - pi_d_a2_a7_proc_1 + pi_d_a7_a2_proc_1 - pi_d_a3_a7_proc_1
      + pi_d_a7_a3_proc_1 - pi_d_a5_a7_proc_1 + pi_d_a7_a5_proc_1
      - pi_d_a6_a7_proc_1 + pi_d_a7_a6_proc_1 + pi_d_a7_a8_proc_1
      - pi_d_a8_a7_proc_1 + pi_d_a7_a9_proc_1 - pi_d_a9_a7_proc_1
      + pi_d_a7_a10_proc_1 - pi_d_a10_a7_proc_1 + pi_d_a7_a12_proc_1
      - pi_d_a12_a7_proc_1 + pi_d_a7_a13_proc_1 - pi_d_a13_a7_proc_1
      + pi_d_a7_a14_proc_1 - pi_d_a14_a7_proc_1 >= 0
 c22: 853 pi_p_a7_a5 + 853 pi_p_a7_a2 + 853 pi_d_a7_a0_proc_1
      + 853 pi_d_a7_a1_proc_1 + 853 pi_d_a7_a2_proc_1 + 853 pi_d_a7_a3_proc_1
      + 853 pi_d_a7_a5_proc_1 + 853 pi_d_a7_a6_proc_1 + 853 pi_d_a7_a8_proc_1
      + 853 pi_d_a7_a9_proc_1 + 853 pi_d_a7_a10_proc_1 + 853 pi_d_a7_a12_proc_1
      + 853 pi_d_a7_a13_proc_1 + 853 pi_d_a7_a14_proc_1 + pi_y1_a7
      + pi_y2_a7_proc_1 >= 0
 c23: pi_p_a8_a2 + pi_p_a8_a9 + pi_p_a8_a11 - pi_p_a4_a8 - pi_p_a3_a8
      - pi_d_a0_a8_proc_0 - pi_d_a0_a8_proc_1 + pi_d_a8_a0_proc_0
      + pi_d_a8_a0_proc_1 - pi_d_a1_a8_proc_0 - pi_d_a1_a8_proc_1
      + pi_d_a8_a1_proc_0 + pi_d_a8_a1_proc_1 - pi_d_a2_a8_proc_0
      - pi_d_a2_a8_proc_1 + pi_d_a8_a2_proc_0 + pi_d_a8_a2_proc_1
      - pi_d_a3_a8_proc_1 + pi_d_a8_a3_proc_1 - pi_d_a4_a8_proc_0
      + pi_d_a8_a4_proc_0 - pi_d_a5_a8_proc_0 - pi_d_a5_a8_proc_1
      + pi_d_a8_a5_proc_0 + pi_d_a8_a5_proc_1 - pi_d_a6_a8_proc_0
      - pi_d_a6_a8_proc_1 + pi_d_a8_a6_proc_0 + pi_d_a8_a6_proc_1
      - pi_d_a7_a8_proc_1 + pi_d_a8_a7_proc_1 + pi_d_a8_a9_proc_0
      + pi_d_a8_a9_proc_1 - pi_d_a9_a8_proc_0 - pi_d_a9_a8_proc_1
      + pi_d_a8_a10_proc_0 + pi_d_a8_a10_proc_1 - pi_d_a10_a8_proc_0
      - pi_d_a10_a8_proc_1 + pi_d_a8_a11_proc_0 - pi_d_a11_a8_proc_0
      + pi_d_a8_a12_proc_0 + pi_d_a8_a12_proc_1 - pi_d_a12_a8_proc_0
      - pi_d_a12_a8_proc_1 + pi_d_a8_a13_proc_0 + pi_d_a8_a13_proc_1
      - pi_d_a13_a8_proc_0 - pi_d_a13_a8_proc_1 + pi_d_a8_a14_proc_0
      + pi_d_a8_a14_proc_1 - pi_d_a14_a8_proc_0 - pi_d_a14_a8_proc_1 >= 0
 c24: 1035 pi_p_a8_a2 + 1035 pi_p_a8_a9 + 1035 pi_p_a8_a11
      + 1035 pi_d_a8_a0_proc_0 + 1035 pi_d_a8_a1_proc_0 + 1035 pi_d_a8_a2_proc_0
      + 1035 pi_d_a8_a4_proc_0 + 1035 pi_d_a8_a5_proc_0 + 1035 pi_d_a8_a6_proc_0
      + 1035 pi_d_a8_a9_proc_0 + 1035 pi_d_a8_a10_proc_0
      + 1035 pi_d_a8_a11_proc_0 + 1035 pi_d_a8_a12_proc_0
      + 1035 pi_d_a8_a13_proc_0 + 1035 pi_d_a8_a14_proc_0 + pi_y1_a8
      + pi_y2_a8_proc_0 >= 0
 c25: 750 pi_p_a8_a2 + 750 pi_p_a8_a9 + 750 pi_p_a8_a11 + 750 pi_d_a8_a0_proc_1
      + 750 pi_d_a8_a1_proc_1 + 750 pi_d_a8_a2_proc_1 + 750 pi_d_a8_a3_proc_1
      + 750 pi_d_a8_a5_proc_1 + 750 pi_d_a8_a6_proc_1 + 750 pi_d_a8_a7_proc_1
      + 750 pi_d_a8_a9_proc_1 + 750 pi_d_a8_a10_proc_1 + 750 pi_d_a8_a12_proc_1
      + 750 pi_d_a8_a13_proc_1 + 750 pi_d_a8_a14_proc_1 + pi_y1_a8
      + pi_y2_a8_proc_1 >= 0
 c26: - pi_p_a8_a9 - pi_p_a10_a9 + pi_p_a9_a13 - pi_d_a0_a9_proc_0
      - pi_d_a0_a9_proc_1 + pi_d_a9_a0_proc_0 + pi_d_a9_a0_proc_1
      - pi_d_a1_a9_proc_0 - pi_d_a1_a9_proc_1 + pi_d_a9_a1_proc_0
      + pi_d_a9_a1_proc_1 - pi_d_a2_a9_proc_0 - pi_d_a2_a9_proc_1
      + pi_d_a9_a2_proc_0 + pi_d_a9_a2_proc_1 - pi_d_a3_a9_proc_1
      + pi_d_a9_a3_proc_1 - pi_d_a4_a9_proc_0 + pi_d_a9_a4_proc_0
      - pi_d_a5_a9_proc_0 - pi_d_a5_a9_proc_1 + pi_d_a9_a5_proc_0
      + pi_d_a9_a5_proc_1 - pi_d_a6_a9_proc_0 - pi_d_a6_a9_proc_1
      + pi_d_a9_a6_proc_0 + pi_d_a9_a6_proc_1 - pi_d_a7_a9_proc_1
      + pi_d_a9_a7_proc_1 - pi_d_a8_a9_proc_0 - pi_d_a8_a9_proc_1
      + pi_d_a9_a8_proc_0 + pi_d_a9_a8_proc_1 + pi_d_a9_a10_proc_0
      + pi_d_a9_a10_proc_1 - pi_d_a10_a9_proc_0 - pi_d_a10_a9_proc_1
      + pi_d_a9_a11_proc_0 - pi_d_a11_a9_proc_0 + pi_d_a9_a12_proc_0
      + pi_d_a9_a12_proc_1 - pi_d_a12_a9_proc_0 - pi_d_a12_a9_proc_1
      + pi_d_a9_a13_proc_0 + pi_d_a9_a13_proc_1 - pi_d_a13_a9_proc_0
      - pi_d_a13_a9_proc_1 + pi_d_a9_a14_proc_0 + pi_d_a9_a14_proc_1
      - pi_d_a14_a9_proc_0 - pi_d_a14_a9_proc_1 >= 0
 c27: 643 pi_p_a9_a13 + 643 pi_d_a9_a0_proc_0 + 643 pi_d_a9_a1_proc_0
      + 643 pi_d_a9_a2_proc_0 + 643 pi_d_a9_a4_proc_0 + 643 pi_d_a9_a5_proc_0
      + 643 pi_d_a9_a6_proc_0 + 643 pi_d_a9_a8_proc_0 + 643 pi_d_a9_a10_proc_0
      + 643 pi_d_a9_a11_proc_0 + 643 pi_d_a9_a12_proc_0 + 643 pi_d_a9_a13_proc_0
      + 643 pi_d_a9_a14_proc_0 + pi_y1_a9 + pi_y2_a9_proc_0 >= 0
 c28: 913 pi_p_a9_a13 + 913 pi_d_a9_a0_proc_1 + 913 pi_d_a9_a1_proc_1
      + 913 pi_d_a9_a2_proc_1 + 913 pi_d_a9_a3_proc_1 + 913 pi_d_a9_a5_proc_1
      + 913 pi_d_a9_a6_proc_1 + 913 pi_d_a9_a7_proc_1 + 913 pi_d_a9_a8_proc_1
      + 913 pi_d_a9_a10_proc_1 + 913 pi_d_a9_a12_proc_1 + 913 pi_d_a9_a13_proc_1
      + 913 pi_d_a9_a14_proc_1 + pi_y1_a9 + pi_y2_a9_proc_1 >= 0
 c29: pi_p_a10_a9 - pi_p_a11_a10 + pi_p_a10_a7 - pi_p_a12_a10
      - pi_d_a0_a10_proc_0 - pi_d_a0_a10_proc_1 + pi_d_a10_a0_proc_0
      + pi_d_a10_a0_proc_1 - pi_d_a1_a10_proc_0 - pi_d_a1_a10_proc_1
      + pi_d_a10_a1_proc_0 + pi_d_a10_a1_proc_1 - pi_d_a2_a10_proc_0
      - pi_d_a2_a10_proc_1 + pi_d_a10_a2_proc_0 + pi_d_a10_a2_proc_1
      - pi_d_a3_a10_proc_1 + pi_d_a10_a3_proc_1 - pi_d_a4_a10_proc_0
      + pi_d_a10_a4_proc_0 - pi_d_a5_a10_proc_0 - pi_d_a5_a10_proc_1
      + pi_d_a10_a5_proc_0 + pi_d_a10_a5_proc_1 - pi_d_a6_a10_proc_0
      - pi_d_a6_a10_proc_1 + pi_d_a10_a6_proc_0 + pi_d_a10_a6_proc_1
      - pi_d_a7_a10_proc_1 + pi_d_a10_a7_proc_1 - pi_d_a8_a10_proc_0
      - pi_d_a8_a10_proc_1 + pi_d_a10_a8_proc_0 + pi_d_a10_a8_proc_1
      - pi_d_a9_a10_proc_0 - pi_d_a9_a10_proc_1 + pi_d_a10_a9_proc_0
      + pi_d_a10_a9_proc_1 + pi_d_a10_a11_proc_0 - pi_d_a11_a10_proc_0
      + pi_d_a10_a12_proc_0 + pi_d_a10_a12_proc_1 - pi_d_a12_a10_proc_0
      - pi_d_a12_a10_proc_1 + pi_d_a10_a13_proc_0 + pi_d_a10_a13_proc_1
      - pi_d_a13_a10_proc_0 - pi_d_a13_a10_proc_1 + pi_d_a10_a14_proc_0
      + pi_d_a10_a14_proc_1 - pi_d_a14_a10_proc_0 - pi_d_a14_a10_proc_1 >= 0
 c30: 1073 pi_p_a10_a9 + 1073 pi_p_a10_a7 + 1073 pi_d_a10_a0_proc_0
      + 1073 pi_d_a10_a1_proc_0 + 1073 pi_d_a10_a2_proc_0
      + 1073 pi_d_a10_a4_proc_0 + 1073 pi_d_a10_a5_proc_0
      + 1073 pi_d_a10_a6_proc_0 + 1073 pi_d_a10_a8_proc_0
      + 1073 pi_d_a10_a9_proc_0 + 1073 pi_d_a10_a11_proc_0
      + 1073 pi_d_a10_a12_proc_0 + 1073 pi_d_a10_a13_proc_0
      + 1073 pi_d_a10_a14_proc_0 + pi_y1_a10 + pi_y2_a10_proc_0 >= 0
 c31: 1215 pi_p_a10_a9 + 1215 pi_p_a10_a7 + 1215 pi_d_a10_a0_proc_1
      + 1215 pi_d_a10_a1_proc_1 + 1215 pi_d_a10_a2_proc_1
      + 1215 pi_d_a10_a3_proc_1 + 1215 pi_d_a10_a5_proc_1
      + 1215 pi_d_a10_a6_proc_1 + 1215 pi_d_a10_a7_proc_1
      + 1215 pi_d_a10_a8_proc_1 + 1215 pi_d_a10_a9_proc_1
      + 1215 pi_d_a10_a12_proc_1 + 1215 pi_d_a10_a13_proc_1
      + 1215 pi_d_a10_a14_proc_1 + pi_y1_a10 + pi_y2_a10_proc_1 >= 0
 c32: pi_p_a11_a10 + pi_p_a11_a5 - pi_p_a8_a11 - pi_p_a4_a11
      - pi_d_a0_a11_proc_0 + pi_d_a11_a0_proc_0 - pi_d_a1_a11_proc_0
      + pi_d_a11_a1_proc_0 - pi_d_a2_a11_proc_0 + pi_d_a11_a2_proc_0
      - pi_d_a4_a11_proc_0 + pi_d_a11_a4_proc_0 - pi_d_a5_a11_proc_0
      + pi_d_a11_a5_proc_0 - pi_d_a6_a11_proc_0 + pi_d_a11_a6_proc_0
      - pi_d_a8_a11_proc_0 + pi_d_a11_a8_proc_0 - pi_d_a9_a11_proc_0
      + pi_d_a11_a9_proc_0 - pi_d_a10_a11_proc_0 + pi_d_a11_a10_proc_0
      + pi_d_a11_a12_proc_0 - pi_d_a12_a11_proc_0 + pi_d_a11_a13_proc_0
      - pi_d_a13_a11_proc_0 + pi_d_a11_a14_proc_0 - pi_d_a14_a11_proc_0 >= 0
 c33: 801 pi_p_a11_a10 + 801 pi_p_a11_a5 + 801 pi_d_a11_a0_proc_0
      + 801 pi_d_a11_a1_proc_0 + 801 pi_d_a11_a2_proc_0 + 801 pi_d_a11_a4_proc_0
      + 801 pi_d_a11_a5_proc_0 + 801 pi_d_a11_a6_proc_0 + 801 pi_d_a11_a8_proc_0
      + 801 pi_d_a11_a9_proc_0 + 801 pi_d_a11_a10_proc_0
      + 801 pi_d_a11_a12_proc_0 + 801 pi_d_a11_a13_proc_0
      + 801 pi_d_a11_a14_proc_0 + pi_y1_a11 + pi_y2_a11_proc_0 >= 0
 c34: - pi_p_a6_a12 + pi_p_a12_a13 + pi_p_a12_a10 - pi_p_a13_a12 - pi_p_a4_a12
      - pi_d_a0_a12_proc_0 - pi_d_a0_a12_proc_1 + pi_d_a12_a0_proc_0
      + pi_d_a12_a0_proc_1 - pi_d_a1_a12_proc_0 - pi_d_a1_a12_proc_1
      + pi_d_a12_a1_proc_0 + pi_d_a12_a1_proc_1 - pi_d_a2_a12_proc_0
      - pi_d_a2_a12_proc_1 + pi_d_a12_a2_proc_0 + pi_d_a12_a2_proc_1
      - pi_d_a3_a12_proc_1 + pi_d_a12_a3_proc_1 - pi_d_a4_a12_proc_0
      + pi_d_a12_a4_proc_0 - pi_d_a5_a12_proc_0 - pi_d_a5_a12_proc_1
      + pi_d_a12_a5_proc_0 + pi_d_a12_a5_proc_1 - pi_d_a6_a12_proc_0
      - pi_d_a6_a12_proc_1 + pi_d_a12_a6_proc_0 + pi_d_a12_a6_proc_1
      - pi_d_a7_a12_proc_1 + pi_d_a12_a7_proc_1 - pi_d_a8_a12_proc_0
      - pi_d_a8_a12_proc_1 + pi_d_a12_a8_proc_0 + pi_d_a12_a8_proc_1
      - pi_d_a9_a12_proc_0 - pi_d_a9_a12_proc_1 + pi_d_a12_a9_proc_0
      + pi_d_a12_a9_proc_1 - pi_d_a10_a12_proc_0 - pi_d_a10_a12_proc_1
      + pi_d_a12_a10_proc_0 + pi_d_a12_a10_proc_1 - pi_d_a11_a12_proc_0
      + pi_d_a12_a11_proc_0 + pi_d_a12_a13_proc_0 + pi_d_a12_a13_proc_1
      - pi_d_a13_a12_proc_0 - pi_d_a13_a12_proc_1 + pi_d_a12_a14_proc_0
      + pi_d_a12_a14_proc_1 - pi_d_a14_a12_proc_0 - pi_d_a14_a12_proc_1 >= 0
 c35: 659 pi_p_a12_a13 + 659 pi_p_a12_a10 + 659 pi_d_a12_a0_proc_0
      + 659 pi_d_a12_a1_proc_0 + 659 pi_d_a12_a2_proc_0 + 659 pi_d_a12_a4_proc_0
      + 659 pi_d_a12_a5_proc_0 + 659 pi_d_a12_a6_proc_0 + 659 pi_d_a12_a8_proc_0
      + 659 pi_d_a12_a9_proc_0 + 659 pi_d_a12_a10_proc_0
      + 659 pi_d_a12_a11_proc_0 + 659 pi_d_a12_a13_proc_0
      + 659 pi_d_a12_a14_proc_0 + pi_y1_a12 + pi_y2_a12_proc_0 >= 0
 c36: 1006 pi_p_a12_a13 + 1006 pi_p_a12_a10 + 1006 pi_d_a12_a0_proc_1
      + 1006 pi_d_a12_a1_proc_1 + 1006 pi_d_a12_a2_proc_1
      + 1006 pi_d_a12_a3_proc_1 + 1006 pi_d_a12_a5_proc_1
      + 1006 pi_d_a12_a6_proc_1 + 1006 pi_d_a12_a7_proc_1
      + 1006 pi_d_a12_a8_proc_1 + 1006 pi_d_a12_a9_proc_1
      + 1006 pi_d_a12_a10_proc_1 + 1006 pi_d_a12_a13_proc_1
      + 1006 pi_d_a12_a14_proc_1 + pi_y1_a12 + pi_y2_a12_proc_1 >= 0
 c37: - pi_p_a12_a13 - pi_p_a9_a13 + pi_p_a13_a5 - pi_p_a6_a13 + pi_p_a13_a12
      - pi_d_a0_a13_proc_0 - pi_d_a0_a13_proc_1 + pi_d_a13_a0_proc_0
      + pi_d_a13_a0_proc_1 - pi_d_a1_a13_proc_0 - pi_d_a1_a13_proc_1
      + pi_d_a13_a1_proc_0 + pi_d_a13_a1_proc_1 - pi_d_a2_a13_proc_0
      - pi_d_a2_a13_proc_1 + pi_d_a13_a2_proc_0 + pi_d_a13_a2_proc_1
      - pi_d_a3_a13_proc_1 + pi_d_a13_a3_proc_1 - pi_d_a4_a13_proc_0
      + pi_d_a13_a4_proc_0 - pi_d_a5_a13_proc_0 - pi_d_a5_a13_proc_1
      + pi_d_a13_a5_proc_0 + pi_d_a13_a5_proc_1 - pi_d_a6_a13_proc_0
      - pi_d_a6_a13_proc_1 + pi_d_a13_a6_proc_0 + pi_d_a13_a6_proc_1
      - pi_d_a7_a13_proc_1 + pi_d_a13_a7_proc_1 - pi_d_a8_a13_proc_0
      - pi_d_a8_a13_proc_1 + pi_d_a13_a8_proc_0 + pi_d_a13_a8_proc_1
      - pi_d_a9_a13_proc_0 - pi_d_a9_a13_proc_1 + pi_d_a13_a9_proc_0
      + pi_d_a13_a9_proc_1 - pi_d_a10_a13_proc_0 - pi_d_a10_a13_proc_1
      + pi_d_a13_a10_proc_0 + pi_d_a13_a10_proc_1 - pi_d_a11_a13_proc_0
      + pi_d_a13_a11_proc_0 - pi_d_a12_a13_proc_0 - pi_d_a12_a13_proc_1
      + pi_d_a13_a12_proc_0 + pi_d_a13_a12_proc_1 + pi_d_a13_a14_proc_0
      + pi_d_a13_a14_proc_1 - pi_d_a14_a13_proc_0 - pi_d_a14_a13_proc_1 >= 0
 c38: 1130 pi_p_a13_a5 + 1130 pi_p_a13_a12 + 1130 pi_d_a13_a0_proc_0
      + 1130 pi_d_a13_a1_proc_0 + 1130 pi_d_a13_a2_proc_0
      + 1130 pi_d_a13_a4_proc_0 + 1130 pi_d_a13_a5_proc_0
      + 1130 pi_d_a13_a6_proc_0 + 1130 pi_d_a13_a8_proc_0
      + 1130 pi_d_a13_a9_proc_0 + 1130 pi_d_a13_a10_proc_0
      + 1130 pi_d_a13_a11_proc_0 + 1130 pi_d_a13_a12_proc_0
      + 1130 pi_d_a13_a14_proc_0 + pi_y1_a13 + pi_y2_a13_proc_0 >= 0
 c39: 1014 pi_p_a13_a5 + 1014 pi_p_a13_a12 + 1014 pi_d_a13_a0_proc_1
      + 1014 pi_d_a13_a1_proc_1 + 1014 pi_d_a13_a2_proc_1
      + 1014 pi_d_a13_a3_proc_1 + 1014 pi_d_a13_a5_proc_1
      + 1014 pi_d_a13_a6_proc_1 + 1014 pi_d_a13_a7_proc_1
      + 1014 pi_d_a13_a8_proc_1 + 1014 pi_d_a13_a9_proc_1
      + 1014 pi_d_a13_a10_proc_1 + 1014 pi_d_a13_a12_proc_1
      + 1014 pi_d_a13_a14_proc_1 + pi_y1_a13 + pi_y2_a13_proc_1 >= 0
 c40: - pi_p_a6_a14 + pi_p_a14_a4 + pi_p_a14_a2 - pi_d_a0_a14_proc_0
      - pi_d_a0_a14_proc_1 + pi_d_a14_a0_proc_0 + pi_d_a14_a0_proc_1
      - pi_d_a1_a14_proc_0 - pi_d_a1_a14_proc_1 + pi_d_a14_a1_proc_0
      + pi_d_a14_a1_proc_1 - pi_d_a2_a14_proc_0 - pi_d_a2_a14_proc_1
      + pi_d_a14_a2_proc_0 + pi_d_a14_a2_proc_1 - pi_d_a3_a14_proc_1
      + pi_d_a14_a3_proc_1 - pi_d_a4_a14_proc_0 + pi_d_a14_a4_proc_0
      - pi_d_a5_a14_proc_0 - pi_d_a5_a14_proc_1 + pi_d_a14_a5_proc_0
      + pi_d_a14_a5_proc_1 - pi_d_a6_a14_proc_0 - pi_d_a6_a14_proc_1
      + pi_d_a14_a6_proc_0 + pi_d_a14_a6_proc_1 - pi_d_a7_a14_proc_1
      + pi_d_a14_a7_proc_1 - pi_d_a8_a14_proc_0 - pi_d_a8_a14_proc_1
      + pi_d_a14_a8_proc_0 + pi_d_a14_a8_proc_1 - pi_d_a9_a14_proc_0
      - pi_d_a9_a14_proc_1 + pi_d_a14_a9_proc_0 + pi_d_a14_a9_proc_1
      - pi_d_a10_a14_proc_0 - pi_d_a10_a14_proc_1 + pi_d_a14_a10_proc_0
      + pi_d_a14_a10_proc_1 - pi_d_a11_a14_proc_0 + pi_d_a14_a11_proc_0
      - pi_d_a12_a14_proc_0 - pi_d_a12_a14_proc_1 + pi_d_a14_a12_proc_0
      + pi_d_a14_a12_proc_1 - pi_d_a13_a14_proc_0 - pi_d_a13_a14_proc_1
      + pi_d_a14_a13_proc_0 + pi_d_a14_a13_proc_1 >= 0
 c41: 1220 pi_p_a14_a4 + 1220 pi_p_a14_a2 + 1220 pi_d_a14_a0_proc_0
      + 1220 pi_d_a14_a1_proc_0 + 1220 pi_d_a14_a2_proc_0
      + 1220 pi_d_a14_a4_proc_0 + 1220 pi_d_a14_a5_proc_0
      + 1220 pi_d_a14_a6_proc_0 + 1220 pi_d_a14_a8_proc_0
      + 1220 pi_d_a14_a9_proc_0 + 1220 pi_d_a14_a10_proc_0
      + 1220 pi_d_a14_a11_proc_0 + 1220 pi_d_a14_a12_proc_0
      + 1220 pi_d_a14_a13_proc_0 + pi_y1_a14 + pi_y2_a14_proc_0 >= 0
 c42: 984 pi_p_a14_a4 + 984 pi_p_a14_a2 + 984 pi_d_a14_a0_proc_1
      + 984 pi_d_a14_a1_proc_1 + 984 pi_d_a14_a2_proc_1 + 984 pi_d_a14_a3_proc_1
      + 984 pi_d_a14_a5_proc_1 + 984 pi_d_a14_a6_proc_1 + 984 pi_d_a14_a7_proc_1
      + 984 pi_d_a14_a8_proc_1 + 984 pi_d_a14_a9_proc_1
      + 984 pi_d_a14_a10_proc_1 + 984 pi_d_a14_a12_proc_1
      + 984 pi_d_a14_a13_proc_1 + pi_y1_a14 + pi_y2_a14_proc_1 >= 0

Bounds
       pi_y1_a0 Free
       pi_y1_a1 Free
       pi_y1_a2 Free
       pi_y1_a3 Free
       pi_y1_a4 Free
       pi_y1_a5 Free
       pi_y1_a6 Free
       pi_y1_a7 Free
       pi_y1_a8 Free
       pi_y1_a9 Free
       pi_y1_a10 Free
       pi_y1_a11 Free
       pi_y1_a12 Free
       pi_y1_a13 Free
       pi_y1_a14 Free
End
