benchmark/results/graph__15-1000-0.10-02_1/graph__15-1000-0.10-02_1_Quinton_Benders_sub.txt
solution for: Quinton Benders_dual_sub
objective: 0.000135851
status: OPTIMAL_SOLUTION(2)
pi_p_a1_a0=0.000
pi_p_a2_a1=0.000
pi_p_a0_a3=0.000
pi_p_a5_a4=0.000
pi_p_a3_a6=0.000
pi_p_a7_a5=0.000
pi_p_a8_a2=0.000
pi_p_a6_a14=0.000
pi_p_a4_a8=0.000
pi_d_a14_a7_proc_1=0.000
pi_y1_a0=-0.130
pi_y1_a1=-0.139
pi_y1_a2=-0.056
pi_y1_a3=-0.084
pi_y1_a4=-0.096
pi_y1_a5=-0.076
pi_y1_a6=-0.069
pi_y1_a7=-0.116
pi_y1_a8=-0.102
pi_y1_a14=-0.134
pi_y2_a14_proc_0=0.134
